p cnf 289 1
289 0
w 1 0.829211
w 2 1 0.159886
w 2 -1 0.804631
w 3 2 1
w 3 -2 0
w 4 3 0.701534
w 4 -3 0.521681
w 5 4 0
w 5 -4 1
w 6 5 0
w 6 -5 1
w 7 6 1
w 7 -6 0
w 8 7 0
w 8 -7 1
w 9 8 0
w 9 -8 1
w 10 9 0
w 10 -9 1
w 11 10 0
w 11 -10 1
w 12 11 1
w 12 -11 0
w 13 12 1
w 13 -12 0
w 14 13 0
w 14 -13 1
w 15 14 1
w 15 -14 0
w 16 15 1
w 16 -15 0
w 17 16 1
w 17 -16 0
w 18 1 0
w 18 -1 1
w 19 18 2 1
w 19 18 -2 1
w 19 -18 2 0
w 19 -18 -2 1
w 20 19 3 1
w 20 19 -3 0
w 20 -19 3 0
w 20 -19 -3 1
w 21 20 4 0
w 21 20 -4 1
w 21 -20 4 0
w 21 -20 -4 0
w 22 21 5 0.882916
w 22 21 -5 0.371642
w 22 -21 5 0.291922
w 22 -21 -5 0.68417
w 23 22 6 0
w 23 22 -6 0
w 23 -22 6 0
w 23 -22 -6 1
w 24 23 7 1
w 24 23 -7 1
w 24 -23 7 1
w 24 -23 -7 0
w 25 24 8 0.466563
w 25 24 -8 0.086798
w 25 -24 8 0.508028
w 25 -24 -8 0.467331
w 26 25 9 0.675058
w 26 25 -9 0.684406
w 26 -25 9 0.702607
w 26 -25 -9 0.208289
w 27 26 10 1
w 27 26 -10 0
w 27 -26 10 1
w 27 -26 -10 1
w 28 27 11 1
w 28 27 -11 1
w 28 -27 11 1
w 28 -27 -11 0
w 29 28 12 1
w 29 28 -12 0
w 29 -28 12 0
w 29 -28 -12 0
w 30 29 13 1
w 30 29 -13 1
w 30 -29 13 0
w 30 -29 -13 1
w 31 30 14 0
w 31 30 -14 1
w 31 -30 14 1
w 31 -30 -14 1
w 32 31 15 0
w 32 31 -15 0
w 32 -31 15 0
w 32 -31 -15 1
w 33 32 16 1
w 33 32 -16 1
w 33 -32 16 1
w 33 -32 -16 0
w 34 33 17 0
w 34 33 -17 1
w 34 -33 17 1
w 34 -33 -17 0
w 35 18 0.558947
w 35 -18 0.608407
w 36 35 19 1
w 36 35 -19 0
w 36 -35 19 0
w 36 -35 -19 0
w 37 36 20 0.949264
w 37 36 -20 0.52559
w 37 -36 20 0.214205
w 37 -36 -20 0.61909
w 38 37 21 0
w 38 37 -21 0
w 38 -37 21 1
w 38 -37 -21 0
w 39 38 22 0
w 39 38 -22 1
w 39 -38 22 0
w 39 -38 -22 0
w 40 39 23 0
w 40 39 -23 1
w 40 -39 23 0
w 40 -39 -23 0
w 41 40 24 1
w 41 40 -24 0
w 41 -40 24 1
w 41 -40 -24 0
w 42 41 25 0
w 42 41 -25 1
w 42 -41 25 1
w 42 -41 -25 0
w 43 42 26 1
w 43 42 -26 0
w 43 -42 26 0
w 43 -42 -26 1
w 44 43 27 0.36468
w 44 43 -27 0.449053
w 44 -43 27 0.402512
w 44 -43 -27 0.86478
w 45 44 28 0
w 45 44 -28 1
w 45 -44 28 1
w 45 -44 -28 0
w 46 45 29 0
w 46 45 -29 1
w 46 -45 29 1
w 46 -45 -29 0
w 47 46 30 0
w 47 46 -30 0
w 47 -46 30 1
w 47 -46 -30 1
w 48 47 31 0
w 48 47 -31 1
w 48 -47 31 1
w 48 -47 -31 1
w 49 48 32 0.952397
w 49 48 -32 0.992464
w 49 -48 32 0.325749
w 49 -48 -32 0.302128
w 50 49 33 0
w 50 49 -33 0
w 50 -49 33 1
w 50 -49 -33 0
w 51 50 34 0
w 51 50 -34 1
w 51 -50 34 0
w 51 -50 -34 1
w 52 35 0
w 52 -35 1
w 53 52 36 0
w 53 52 -36 1
w 53 -52 36 1
w 53 -52 -36 1
w 54 53 37 1
w 54 53 -37 1
w 54 -53 37 1
w 54 -53 -37 0
w 55 54 38 0
w 55 54 -38 1
w 55 -54 38 1
w 55 -54 -38 0
w 56 55 39 0
w 56 55 -39 1
w 56 -55 39 1
w 56 -55 -39 0
w 57 56 40 0
w 57 56 -40 1
w 57 -56 40 0
w 57 -56 -40 1
w 58 57 41 1
w 58 57 -41 0
w 58 -57 41 0
w 58 -57 -41 1
w 59 58 42 1
w 59 58 -42 1
w 59 -58 42 0
w 59 -58 -42 1
w 60 59 43 0.788394
w 60 59 -43 0.877815
w 60 -59 43 0.922612
w 60 -59 -43 0.359781
w 61 60 44 1
w 61 60 -44 1
w 61 -60 44 0
w 61 -60 -44 0
w 62 61 45 0.557693
w 62 61 -45 0.774118
w 62 -61 45 0.229612
w 62 -61 -45 0.993669
w 63 62 46 0.77105
w 63 62 -46 0.0964526
w 63 -62 46 0.655585
w 63 -62 -46 0.823063
w 64 63 47 1
w 64 63 -47 0
w 64 -63 47 0
w 64 -63 -47 0
w 65 64 48 1
w 65 64 -48 1
w 65 -64 48 0
w 65 -64 -48 1
w 66 65 49 0
w 66 65 -49 1
w 66 -65 49 0
w 66 -65 -49 1
w 67 66 50 1
w 67 66 -50 0
w 67 -66 50 1
w 67 -66 -50 0
w 68 67 51 1
w 68 67 -51 0
w 68 -67 51 1
w 68 -67 -51 0
w 69 52 0
w 69 -52 1
w 70 69 53 0.836409
w 70 69 -53 0.280408
w 70 -69 53 0.533517
w 70 -69 -53 0.849315
w 71 70 54 0
w 71 70 -54 0
w 71 -70 54 1
w 71 -70 -54 1
w 72 71 55 0
w 72 71 -55 0
w 72 -71 55 1
w 72 -71 -55 0
w 73 72 56 0
w 73 72 -56 1
w 73 -72 56 1
w 73 -72 -56 1
w 74 73 57 0
w 74 73 -57 1
w 74 -73 57 0
w 74 -73 -57 1
w 75 74 58 0
w 75 74 -58 1
w 75 -74 58 1
w 75 -74 -58 0
w 76 75 59 0
w 76 75 -59 1
w 76 -75 59 0
w 76 -75 -59 0
w 77 76 60 0
w 77 76 -60 1
w 77 -76 60 1
w 77 -76 -60 1
w 78 77 61 1
w 78 77 -61 1
w 78 -77 61 1
w 78 -77 -61 0
w 79 78 62 0.118183
w 79 78 -62 0.246168
w 79 -78 62 0.121701
w 79 -78 -62 0.786233
w 80 79 63 0
w 80 79 -63 0
w 80 -79 63 1
w 80 -79 -63 0
w 81 80 64 0
w 81 80 -64 1
w 81 -80 64 1
w 81 -80 -64 1
w 82 81 65 1
w 82 81 -65 0
w 82 -81 65 0
w 82 -81 -65 0
w 83 82 66 0.530978
w 83 82 -66 0.0611405
w 83 -82 66 0.468619
w 83 -82 -66 0.483156
w 84 83 67 1
w 84 83 -67 1
w 84 -83 67 1
w 84 -83 -67 0
w 85 84 68 0
w 85 84 -68 0
w 85 -84 68 1
w 85 -84 -68 1
w 86 69 0
w 86 -69 1
w 87 86 70 1
w 87 86 -70 0
w 87 -86 70 1
w 87 -86 -70 0
w 88 87 71 0
w 88 87 -71 0
w 88 -87 71 1
w 88 -87 -71 0
w 89 88 72 1
w 89 88 -72 0
w 89 -88 72 0
w 89 -88 -72 0
w 90 89 73 0.457216
w 90 89 -73 0.546144
w 90 -89 73 0.463158
w 90 -89 -73 0.0973933
w 91 90 74 1
w 91 90 -74 1
w 91 -90 74 0
w 91 -90 -74 1
w 92 91 75 1
w 92 91 -75 1
w 92 -91 75 0
w 92 -91 -75 0
w 93 92 76 0
w 93 92 -76 1
w 93 -92 76 1
w 93 -92 -76 1
w 94 93 77 1
w 94 93 -77 1
w 94 -93 77 0
w 94 -93 -77 1
w 95 94 78 0
w 95 94 -78 0
w 95 -94 78 0
w 95 -94 -78 1
w 96 95 79 0
w 96 95 -79 0
w 96 -95 79 1
w 96 -95 -79 0
w 97 96 80 0.813245
w 97 96 -80 0.440929
w 97 -96 80 0.995567
w 97 -96 -80 0.341622
w 98 97 81 0.472848
w 98 97 -81 0.96545
w 98 -97 81 0.740868
w 98 -97 -81 0.989259
w 99 98 82 1
w 99 98 -82 1
w 99 -98 82 0
w 99 -98 -82 0
w 100 99 83 1
w 100 99 -83 0
w 100 -99 83 0
w 100 -99 -83 1
w 101 100 84 0
w 101 100 -84 0
w 101 -100 84 1
w 101 -100 -84 0
w 102 101 85 0.807565
w 102 101 -85 0.767464
w 102 -101 85 0.65892
w 102 -101 -85 0.0661825
w 103 86 1
w 103 -86 0
w 104 103 87 0.739597
w 104 103 -87 0.485801
w 104 -103 87 0.22105
w 104 -103 -87 0.655004
w 105 104 88 0.1865
w 105 104 -88 0.395872
w 105 -104 88 0.947908
w 105 -104 -88 0.304241
w 106 105 89 1
w 106 105 -89 1
w 106 -105 89 1
w 106 -105 -89 0
w 107 106 90 1
w 107 106 -90 1
w 107 -106 90 0
w 107 -106 -90 0
w 108 107 91 0
w 108 107 -91 1
w 108 -107 91 1
w 108 -107 -91 1
w 109 108 92 0.619298
w 109 108 -92 0.124935
w 109 -108 92 0.0605426
w 109 -108 -92 0.917966
w 110 109 93 1
w 110 109 -93 1
w 110 -109 93 0
w 110 -109 -93 1
w 111 110 94 1
w 111 110 -94 0
w 111 -110 94 0
w 111 -110 -94 1
w 112 111 95 1
w 112 111 -95 0
w 112 -111 95 1
w 112 -111 -95 0
w 113 112 96 0
w 113 112 -96 1
w 113 -112 96 0
w 113 -112 -96 0
w 114 113 97 0
w 114 113 -97 0
w 114 -113 97 1
w 114 -113 -97 0
w 115 114 98 0
w 115 114 -98 1
w 115 -114 98 0
w 115 -114 -98 1
w 116 115 99 0.564164
w 116 115 -99 0.471745
w 116 -115 99 0.0772768
w 116 -115 -99 0.725184
w 117 116 100 0.136895
w 117 116 -100 0.0727042
w 117 -116 100 0.492749
w 117 -116 -100 0.144421
w 118 117 101 1
w 118 117 -101 0
w 118 -117 101 1
w 118 -117 -101 0
w 119 118 102 1
w 119 118 -102 0
w 119 -118 102 1
w 119 -118 -102 1
w 120 103 1
w 120 -103 0
w 121 120 104 0
w 121 120 -104 1
w 121 -120 104 1
w 121 -120 -104 0
w 122 121 105 0.6473
w 122 121 -105 0.724075
w 122 -121 105 0.845312
w 122 -121 -105 0.211464
w 123 122 106 0
w 123 122 -106 1
w 123 -122 106 0
w 123 -122 -106 1
w 124 123 107 0
w 124 123 -107 1
w 124 -123 107 0
w 124 -123 -107 1
w 125 124 108 0
w 125 124 -108 0
w 125 -124 108 1
w 125 -124 -108 1
w 126 125 109 0.861959
w 126 125 -109 0.443462
w 126 -125 109 0.645212
w 126 -125 -109 0.598718
w 127 126 110 0
w 127 126 -110 1
w 127 -126 110 1
w 127 -126 -110 1
w 128 127 111 1
w 128 127 -111 1
w 128 -127 111 0
w 128 -127 -111 1
w 129 128 112 0
w 129 128 -112 1
w 129 -128 112 1
w 129 -128 -112 1
w 130 129 113 0.895196
w 130 129 -113 0.123292
w 130 -129 113 0.666353
w 130 -129 -113 0.92571
w 131 130 114 1
w 131 130 -114 1
w 131 -130 114 1
w 131 -130 -114 0
w 132 131 115 0.0468131
w 132 131 -115 0.721476
w 132 -131 115 0.573356
w 132 -131 -115 0.645531
w 133 132 116 0
w 133 132 -116 1
w 133 -132 116 1
w 133 -132 -116 0
w 134 133 117 0.751598
w 134 133 -117 0.580864
w 134 -133 117 0.0265761
w 134 -133 -117 0.68891
w 135 134 118 1
w 135 134 -118 0
w 135 -134 118 0
w 135 -134 -118 0
w 136 135 119 1
w 136 135 -119 0
w 136 -135 119 1
w 136 -135 -119 1
w 137 120 1
w 137 -120 0
w 138 137 121 0
w 138 137 -121 1
w 138 -137 121 1
w 138 -137 -121 0
w 139 138 122 1
w 139 138 -122 0
w 139 -138 122 0
w 139 -138 -122 1
w 140 139 123 1
w 140 139 -123 0
w 140 -139 123 1
w 140 -139 -123 0
w 141 140 124 0
w 141 140 -124 1
w 141 -140 124 1
w 141 -140 -124 1
w 142 141 125 1
w 142 141 -125 1
w 142 -141 125 1
w 142 -141 -125 0
w 143 142 126 0.314075
w 143 142 -126 0.570199
w 143 -142 126 0.0218212
w 143 -142 -126 0.0260542
w 144 143 127 0.447321
w 144 143 -127 0.911127
w 144 -143 127 0.207173
w 144 -143 -127 0.150835
w 145 144 128 1
w 145 144 -128 1
w 145 -144 128 0
w 145 -144 -128 1
w 146 145 129 1
w 146 145 -129 1
w 146 -145 129 1
w 146 -145 -129 0
w 147 146 130 0
w 147 146 -130 0
w 147 -146 130 0
w 147 -146 -130 1
w 148 147 131 1
w 148 147 -131 0
w 148 -147 131 1
w 148 -147 -131 0
w 149 148 132 0
w 149 148 -132 1
w 149 -148 132 1
w 149 -148 -132 0
w 150 149 133 0.0487799
w 150 149 -133 0.426531
w 150 -149 133 0.854505
w 150 -149 -133 0.255953
w 151 150 134 1
w 151 150 -134 1
w 151 -150 134 1
w 151 -150 -134 0
w 152 151 135 1
w 152 151 -135 0
w 152 -151 135 0
w 152 -151 -135 1
w 153 152 136 0
w 153 152 -136 0
w 153 -152 136 0
w 153 -152 -136 1
w 154 137 0.603247
w 154 -137 0.677331
w 155 154 138 0.206495
w 155 154 -138 0.359653
w 155 -154 138 0.906565
w 155 -154 -138 0.123818
w 156 155 139 0
w 156 155 -139 1
w 156 -155 139 1
w 156 -155 -139 1
w 157 156 140 0.916907
w 157 156 -140 0.889672
w 157 -156 140 0.50055
w 157 -156 -140 0.837761
w 158 157 141 0
w 158 157 -141 0
w 158 -157 141 1
w 158 -157 -141 1
w 159 158 142 0
w 159 158 -142 1
w 159 -158 142 0
w 159 -158 -142 0
w 160 159 143 0
w 160 159 -143 0
w 160 -159 143 0
w 160 -159 -143 1
w 161 160 144 1
w 161 160 -144 0
w 161 -160 144 1
w 161 -160 -144 1
w 162 161 145 0.586188
w 162 161 -145 0.0407702
w 162 -161 145 0.96278
w 162 -161 -145 0.247142
w 163 162 146 1
w 163 162 -146 1
w 163 -162 146 0
w 163 -162 -146 0
w 164 163 147 0
w 164 163 -147 0
w 164 -163 147 1
w 164 -163 -147 1
w 165 164 148 0
w 165 164 -148 1
w 165 -164 148 1
w 165 -164 -148 0
w 166 165 149 0
w 166 165 -149 0
w 166 -165 149 0
w 166 -165 -149 1
w 167 166 150 1
w 167 166 -150 1
w 167 -166 150 0
w 167 -166 -150 1
w 168 167 151 0
w 168 167 -151 1
w 168 -167 151 0
w 168 -167 -151 0
w 169 168 152 1
w 169 168 -152 1
w 169 -168 152 0
w 169 -168 -152 1
w 170 169 153 0
w 170 169 -153 1
w 170 -169 153 0
w 170 -169 -153 1
w 171 154 0.991974
w 171 -154 0.618583
w 172 171 155 0
w 172 171 -155 1
w 172 -171 155 0
w 172 -171 -155 0
w 173 172 156 1
w 173 172 -156 1
w 173 -172 156 0
w 173 -172 -156 0
w 174 173 157 0
w 174 173 -157 1
w 174 -173 157 1
w 174 -173 -157 1
w 175 174 158 0.49327
w 175 174 -158 0.765501
w 175 -174 158 0.329851
w 175 -174 -158 0.0811424
w 176 175 159 1
w 176 175 -159 1
w 176 -175 159 0
w 176 -175 -159 0
w 177 176 160 0.192139
w 177 176 -160 0.316098
w 177 -176 160 0.781061
w 177 -176 -160 0.810722
w 178 177 161 0.0809657
w 178 177 -161 0.494393
w 178 -177 161 0.366711
w 178 -177 -161 0.650825
w 179 178 162 0
w 179 178 -162 0
w 179 -178 162 1
w 179 -178 -162 0
w 180 179 163 0
w 180 179 -163 0
w 180 -179 163 1
w 180 -179 -163 0
w 181 180 164 0
w 181 180 -164 1
w 181 -180 164 1
w 181 -180 -164 0
w 182 181 165 1
w 182 181 -165 1
w 182 -181 165 0
w 182 -181 -165 0
w 183 182 166 1
w 183 182 -166 0
w 183 -182 166 0
w 183 -182 -166 1
w 184 183 167 0
w 184 183 -167 0
w 184 -183 167 1
w 184 -183 -167 1
w 185 184 168 0.326737
w 185 184 -168 0.0204881
w 185 -184 168 0.0477482
w 185 -184 -168 0.809188
w 186 185 169 1
w 186 185 -169 0
w 186 -185 169 0
w 186 -185 -169 0
w 187 186 170 0
w 187 186 -170 1
w 187 -186 170 1
w 187 -186 -170 1
w 188 171 0
w 188 -171 1
w 189 188 172 0.110787
w 189 188 -172 0.275963
w 189 -188 172 0.560549
w 189 -188 -172 0.442954
w 190 189 173 0.40199
w 190 189 -173 0.0912185
w 190 -189 173 0.0149931
w 190 -189 -173 0.0541517
w 191 190 174 1
w 191 190 -174 0
w 191 -190 174 1
w 191 -190 -174 1
w 192 191 175 1
w 192 191 -175 0
w 192 -191 175 0
w 192 -191 -175 0
w 193 192 176 0
w 193 192 -176 1
w 193 -192 176 0
w 193 -192 -176 1
w 194 193 177 0
w 194 193 -177 0
w 194 -193 177 1
w 194 -193 -177 0
w 195 194 178 0.735104
w 195 194 -178 0.57912
w 195 -194 178 0.320344
w 195 -194 -178 0.178058
w 196 195 179 1
w 196 195 -179 0
w 196 -195 179 0
w 196 -195 -179 1
w 197 196 180 0.705065
w 197 196 -180 0.977192
w 197 -196 180 0.328175
w 197 -196 -180 0.0529058
w 198 197 181 1
w 198 197 -181 1
w 198 -197 181 0
w 198 -197 -181 0
w 199 198 182 0.3623
w 199 198 -182 0.643702
w 199 -198 182 0.169537
w 199 -198 -182 0.512397
w 200 199 183 1
w 200 199 -183 1
w 200 -199 183 0
w 200 -199 -183 0
w 201 200 184 1
w 201 200 -184 1
w 201 -200 184 1
w 201 -200 -184 0
w 202 201 185 0
w 202 201 -185 1
w 202 -201 185 1
w 202 -201 -185 0
w 203 202 186 0.310799
w 203 202 -186 0.499956
w 203 -202 186 0.95966
w 203 -202 -186 0.638975
w 204 203 187 1
w 204 203 -187 1
w 204 -203 187 1
w 204 -203 -187 0
w 205 188 0.667862
w 205 -188 0.869133
w 206 205 189 0
w 206 205 -189 1
w 206 -205 189 1
w 206 -205 -189 1
w 207 206 190 0.0356287
w 207 206 -190 0.942389
w 207 -206 190 0.990918
w 207 -206 -190 0.0353475
w 208 207 191 1
w 208 207 -191 1
w 208 -207 191 0
w 208 -207 -191 0
w 209 208 192 0
w 209 208 -192 1
w 209 -208 192 1
w 209 -208 -192 0
w 210 209 193 1
w 210 209 -193 1
w 210 -209 193 0
w 210 -209 -193 0
w 211 210 194 1
w 211 210 -194 0
w 211 -210 194 1
w 211 -210 -194 0
w 212 211 195 1
w 212 211 -195 1
w 212 -211 195 1
w 212 -211 -195 0
w 213 212 196 1
w 213 212 -196 0
w 213 -212 196 1
w 213 -212 -196 0
w 214 213 197 0
w 214 213 -197 1
w 214 -213 197 1
w 214 -213 -197 0
w 215 214 198 1
w 215 214 -198 1
w 215 -214 198 1
w 215 -214 -198 0
w 216 215 199 0
w 216 215 -199 1
w 216 -215 199 0
w 216 -215 -199 0
w 217 216 200 0.933375
w 217 216 -200 0.319552
w 217 -216 200 0.086641
w 217 -216 -200 0.243603
w 218 217 201 0
w 218 217 -201 0
w 218 -217 201 0
w 218 -217 -201 1
w 219 218 202 0.271014
w 219 218 -202 0.232204
w 219 -218 202 0.144097
w 219 -218 -202 0.863807
w 220 219 203 1
w 220 219 -203 0
w 220 -219 203 1
w 220 -219 -203 0
w 221 220 204 1
w 221 220 -204 0
w 221 -220 204 0
w 221 -220 -204 0
w 222 205 1
w 222 -205 0
w 223 222 206 0
w 223 222 -206 1
w 223 -222 206 0
w 223 -222 -206 0
w 224 223 207 0.363495
w 224 223 -207 0.829551
w 224 -223 207 0.0974247
w 224 -223 -207 0.743447
w 225 224 208 1
w 225 224 -208 1
w 225 -224 208 0
w 225 -224 -208 1
w 226 225 209 0
w 226 225 -209 0
w 226 -225 209 0
w 226 -225 -209 1
w 227 226 210 0
w 227 226 -210 1
w 227 -226 210 1
w 227 -226 -210 1
w 228 227 211 1
w 228 227 -211 1
w 228 -227 211 0
w 228 -227 -211 0
w 229 228 212 0
w 229 228 -212 0
w 229 -228 212 1
w 229 -228 -212 0
w 230 229 213 0.126302
w 230 229 -213 0.974767
w 230 -229 213 0.974615
w 230 -229 -213 0.869749
w 231 230 214 0
w 231 230 -214 1
w 231 -230 214 1
w 231 -230 -214 0
w 232 231 215 0.0731157
w 232 231 -215 0.257648
w 232 -231 215 0.367755
w 232 -231 -215 0.833422
w 233 232 216 0
w 233 232 -216 0
w 233 -232 216 0
w 233 -232 -216 1
w 234 233 217 0
w 234 233 -217 1
w 234 -233 217 0
w 234 -233 -217 0
w 235 234 218 0.744772
w 235 234 -218 0.792892
w 235 -234 218 0.93779
w 235 -234 -218 0.507579
w 236 235 219 0.814981
w 236 235 -219 0.633881
w 236 -235 219 0.912876
w 236 -235 -219 0.789596
w 237 236 220 0
w 237 236 -220 0
w 237 -236 220 0
w 237 -236 -220 1
w 238 237 221 0.606312
w 238 237 -221 0.977763
w 238 -237 221 0.238901
w 238 -237 -221 0.974067
w 239 222 0.746159
w 239 -222 0.351453
w 240 239 223 0.426122
w 240 239 -223 0.396153
w 240 -239 223 0.334086
w 240 -239 -223 0.358121
w 241 240 224 0
w 241 240 -224 1
w 241 -240 224 1
w 241 -240 -224 1
w 242 241 225 0
w 242 241 -225 1
w 242 -241 225 1
w 242 -241 -225 0
w 243 242 226 1
w 243 242 -226 0
w 243 -242 226 1
w 243 -242 -226 1
w 244 243 227 1
w 244 243 -227 1
w 244 -243 227 0
w 244 -243 -227 1
w 245 244 228 0
w 245 244 -228 0
w 245 -244 228 1
w 245 -244 -228 1
w 246 245 229 0
w 246 245 -229 0
w 246 -245 229 1
w 246 -245 -229 0
w 247 246 230 0.0229307
w 247 246 -230 0.650791
w 247 -246 230 0.70989
w 247 -246 -230 0.145007
w 248 247 231 0.25149
w 248 247 -231 0.204873
w 248 -247 231 0.3679
w 248 -247 -231 0.731198
w 249 248 232 1
w 249 248 -232 0
w 249 -248 232 1
w 249 -248 -232 0
w 250 249 233 1
w 250 249 -233 0
w 250 -249 233 0
w 250 -249 -233 1
w 251 250 234 0.969852
w 251 250 -234 0.577452
w 251 -250 234 0.0125414
w 251 -250 -234 0.0164503
w 252 251 235 0.431665
w 252 251 -235 0.973162
w 252 -251 235 0.357454
w 252 -251 -235 0.246941
w 253 252 236 0
w 253 252 -236 0
w 253 -252 236 1
w 253 -252 -236 0
w 254 253 237 0
w 254 253 -237 1
w 254 -253 237 1
w 254 -253 -237 0
w 255 254 238 0
w 255 254 -238 1
w 255 -254 238 1
w 255 -254 -238 1
w 256 239 1
w 256 -239 0
w 257 256 240 0
w 257 256 -240 1
w 257 -256 240 1
w 257 -256 -240 1
w 258 257 241 0
w 258 257 -241 0
w 258 -257 241 1
w 258 -257 -241 0
w 259 258 242 1
w 259 258 -242 0
w 259 -258 242 1
w 259 -258 -242 0
w 260 259 243 0
w 260 259 -243 0
w 260 -259 243 1
w 260 -259 -243 0
w 261 260 244 0
w 261 260 -244 1
w 261 -260 244 1
w 261 -260 -244 1
w 262 261 245 0
w 262 261 -245 1
w 262 -261 245 0
w 262 -261 -245 0
w 263 262 246 0
w 263 262 -246 0
w 263 -262 246 1
w 263 -262 -246 1
w 264 263 247 1
w 264 263 -247 0
w 264 -263 247 1
w 264 -263 -247 1
w 265 264 248 0
w 265 264 -248 0
w 265 -264 248 1
w 265 -264 -248 0
w 266 265 249 1
w 266 265 -249 0
w 266 -265 249 0
w 266 -265 -249 1
w 267 266 250 0
w 267 266 -250 1
w 267 -266 250 0
w 267 -266 -250 1
w 268 267 251 0
w 268 267 -251 0
w 268 -267 251 1
w 268 -267 -251 1
w 269 268 252 1
w 269 268 -252 1
w 269 -268 252 0
w 269 -268 -252 1
w 270 269 253 1
w 270 269 -253 0
w 270 -269 253 0
w 270 -269 -253 0
w 271 270 254 0
w 271 270 -254 0
w 271 -270 254 0
w 271 -270 -254 1
w 272 271 255 0.321728
w 272 271 -255 0.316296
w 272 -271 255 0.871046
w 272 -271 -255 0.584951
w 273 256 0
w 273 -256 1
w 274 273 257 0
w 274 273 -257 0
w 274 -273 257 0
w 274 -273 -257 1
w 275 274 258 1
w 275 274 -258 0
w 275 -274 258 0
w 275 -274 -258 1
w 276 275 259 0.275002
w 276 275 -259 0.928475
w 276 -275 259 0.366716
w 276 -275 -259 0.574316
w 277 276 260 0.983927
w 277 276 -260 0.240216
w 277 -276 260 0.288185
w 277 -276 -260 0.495368
w 278 277 261 0
w 278 277 -261 1
w 278 -277 261 0
w 278 -277 -261 1
w 279 278 262 0
w 279 278 -262 0
w 279 -278 262 1
w 279 -278 -262 1
w 280 279 263 0
w 280 279 -263 0
w 280 -279 263 1
w 280 -279 -263 0
w 281 280 264 0
w 281 280 -264 1
w 281 -280 264 1
w 281 -280 -264 0
w 282 281 265 0
w 282 281 -265 0
w 282 -281 265 0
w 282 -281 -265 1
w 283 282 266 1
w 283 282 -266 0
w 283 -282 266 1
w 283 -282 -266 1
w 284 283 267 0
w 284 283 -267 1
w 284 -283 267 0
w 284 -283 -267 0
w 285 284 268 0.941382
w 285 284 -268 0.616713
w 285 -284 268 0.278303
w 285 -284 -268 0.983496
w 286 285 269 1
w 286 285 -269 1
w 286 -285 269 0
w 286 -285 -269 1
w 287 286 270 1
w 287 286 -270 1
w 287 -286 270 1
w 287 -286 -270 0
w 288 287 271 0
w 288 287 -271 0
w 288 -287 271 0
w 288 -287 -271 1
w 289 288 272 0
w 289 288 -272 1
w 289 -288 272 0
w 289 -288 -272 1